gringo cond-pref2.lp --const n=15 --const m=15 | clasp --stat -t 3 --configuration=jumpy
negraton 16:53
clasp version 2.1.3
Reading from stdin
Solving...
Answer: 1
rank(15,10,15) rank(15,8,15) rank(14,14,15) rank(14,12,15) rank(14,11,15) rank(14,10,15) rank(14,9,15) rank(14,8,15)
rank(14,7,15) rank(14,6,15) rank(14,5,15) rank(14,4,15) rank(14,3,15) rank(14,2,15) rank(14,1,15) rank(12,3,15)
rank(11,14,15) rank(11,13,15) rank(11,12,15) rank(11,10,15) rank(11,9,15) rank(11,8,15) rank(11,7,15) rank(11,5,15)
rank(11,4,15) rank(11,3,15) rank(11,2,15) rank(11,1,15) rank(10,13,15) rank(10,11,15) rank(10,10,15) rank(10,8,15)
rank(10,7,15) rank(10,6,15) rank(10,4,15) rank(10,3,15) rank(10,2,15) rank(10,1,15) rank(9,10,15) rank(9,8,15)
rank(8,13,15) rank(8,12,15) rank(8,11,15) rank(8,10,15) rank(8,8,15) rank(8,7,15) rank(8,6,15) rank(8,5,15) rank(8,4,15)
rank(8,3,15) rank(7,14,15) rank(7,11,15) rank(7,8,15) rank(7,4,15) rank(7,3,15) rank(7,2,15) rank(6,14,15) rank(6,10,15)
rank(6,9,15) rank(6,6,15) rank(6,3,15) rank(5,14,15) rank(5,12,15) rank(5,11,15) rank(5,7,15) rank(5,6,15) rank(5,5,15)
rank(5,3,15) rank(5,2,15) rank(4,14,15) rank(4,13,15) rank(4,12,15) rank(4,11,15) rank(4,10,15) rank(4,9,15)
rank(4,8,15) rank(4,7,15) rank(4,6,15) rank(4,5,15) rank(4,4,15) rank(4,3,15) rank(4,2,15) rank(4,1,15) rank(3,14,15)
rank(3,13,15) rank(3,12,15) rank(3,11,15) rank(3,10,15) rank(3,9,15) rank(3,8,15) rank(3,6,15) rank(3,5,15) rank(3,4,15)
rank(3,3,15) rank(3,2,15) rank(3,1,15) rank(2,14,15) rank(2,13,15) rank(2,11,15) rank(2,8,15) rank(2,3,15)
rank(15,15,14) rank(15,12,14) rank(15,11,14) rank(15,10,14) rank(15,8,14) rank(15,7,14) rank(15,5,14) rank(15,4,14)
rank(15,2,14) rank(14,12,14) rank(14,11,14) rank(14,9,14) rank(14,6,14) rank(14,1,14) rank(13,15,14) rank(13,13,14)
rank(13,6,14) rank(13,5,14) rank(13,4,14) rank(13,1,14) rank(12,15,14) rank(12,13,14) rank(12,10,14) rank(12,9,14)
rank(12,8,14) rank(12,6,14) rank(12,3,14) rank(12,1,14) rank(11,13,14) rank(11,9,14) rank(11,8,14) rank(11,7,14)
rank(11,5,14) rank(11,4,14) rank(11,2,14) rank(11,1,14) rank(10,15,14) rank(10,13,14) rank(10,11,14) rank(10,10,14)
rank(10,8,14) rank(10,7,14) rank(10,6,14) rank(10,4,14) rank(10,3,14) rank(10,2,14) rank(10,1,14) rank(9,15,14)
rank(9,10,14) rank(9,8,14) rank(9,7,14) rank(9,6,14) rank(9,5,14) rank(9,3,14) rank(9,2,14) rank(9,1,14) rank(8,15,14)
rank(8,13,14) rank(8,12,14) rank(8,11,14) rank(8,10,14) rank(8,8,14) rank(8,7,14) rank(8,6,14) rank(8,5,14) rank(8,4,14)
rank(8,3,14) rank(8,2,14) rank(7,11,14) rank(7,8,14) rank(7,4,14) rank(7,2,14) rank(6,9,14) rank(6,6,14) rank(5,12,14)
rank(5,11,14) rank(5,7,14) rank(5,5,14) rank(5,2,14) rank(4,13,14) rank(4,12,14) rank(4,11,14) rank(4,10,14)
rank(4,9,14) rank(4,7,14) rank(4,4,14) rank(4,3,14) rank(4,2,14) rank(4,1,14) rank(3,13,14) rank(3,12,14) rank(3,11,14)
rank(3,10,14) rank(3,9,14) rank(3,8,14) rank(3,6,14) rank(3,5,14) rank(3,4,14) rank(3,3,14) rank(3,2,14) rank(3,1,14)
rank(2,13,14) rank(2,11,14) rank(1,15,14) rank(1,13,14) rank(1,11,14) rank(1,9,14) rank(1,7,14) rank(1,6,14)
rank(1,5,14) rank(1,2,14) rank(15,15,13) rank(15,14,13) rank(15,12,13) rank(15,11,13) rank(15,10,13) rank(15,9,13)
rank(15,8,13) rank(15,7,13) rank(15,6,13) rank(15,5,13) rank(15,4,13) rank(15,3,13) rank(15,2,13) rank(15,1,13)
rank(14,15,13) rank(14,14,13) rank(14,12,13) rank(14,11,13) rank(14,10,13) rank(14,9,13) rank(14,8,13) rank(14,7,13)
rank(14,6,13) rank(14,5,13) rank(14,4,13) rank(14,3,13) rank(14,2,13) rank(14,1,13) rank(13,15,13) rank(13,6,13)
rank(13,5,13) rank(13,4,13) rank(13,1,13) rank(12,15,13) rank(12,3,13) rank(12,1,13) rank(11,1,13) rank(10,11,13)
rank(10,10,13) rank(10,8,13) rank(10,7,13) rank(10,6,13) rank(10,4,13) rank(10,3,13) rank(10,2,13) rank(10,1,13)
rank(9,15,13) rank(9,14,13) rank(9,12,13) rank(9,10,13) rank(9,8,13) rank(9,7,13) rank(9,6,13) rank(9,5,13) rank(9,4,13)
rank(9,3,13) rank(9,2,13) rank(9,1,13) rank(8,7,13) rank(7,15,13) rank(7,14,13) rank(7,12,13) rank(7,11,13) rank(7,9,13)
rank(7,8,13) rank(7,6,13) rank(7,4,13) rank(7,3,13) rank(7,2,13) rank(7,1,13) rank(6,15,13) rank(6,14,13) rank(6,12,13)
rank(6,11,13) rank(6,10,13) rank(6,9,13) rank(6,8,13) rank(6,7,13) rank(6,6,13) rank(6,5,13) rank(6,4,13) rank(6,3,13)
rank(6,2,13) rank(6,1,13) rank(5,15,13) rank(5,14,13) rank(5,12,13) rank(5,11,13) rank(5,8,13) rank(5,7,13) rank(5,6,13)
rank(5,5,13) rank(5,4,13) rank(5,3,13) rank(5,2,13) rank(5,1,13) rank(4,12,13) rank(4,7,13) rank(4,4,13) rank(4,3,13)
rank(4,1,13) rank(3,12,13) rank(3,6,13) rank(3,5,13) rank(3,4,13) rank(3,3,13) rank(3,2,13) rank(3,1,13) rank(1,15,13)
rank(1,9,13) rank(1,7,13) rank(1,2,13) rank(15,15,12) rank(15,10,12) rank(15,8,12) rank(14,11,12) rank(14,9,12)
rank(14,6,12) rank(14,1,12) rank(13,15,12) rank(13,14,12) rank(13,13,12) rank(13,11,12) rank(13,10,12) rank(13,9,12)
rank(13,8,12) rank(13,6,12) rank(13,5,12) rank(13,4,12) rank(13,1,12) rank(12,15,12) rank(12,14,12) rank(12,13,12)
rank(12,11,12) rank(12,10,12) rank(12,9,12) rank(12,8,12) rank(12,7,12) rank(12,6,12) rank(12,5,12) rank(12,4,12)
rank(12,3,12) rank(12,2,12) rank(12,1,12) rank(11,14,12) rank(11,13,12) rank(11,9,12) rank(11,8,12) rank(11,7,12)
rank(11,5,12) rank(11,4,12) rank(11,3,12) rank(11,2,12) rank(11,1,12) rank(10,15,12) rank(10,14,12) rank(10,13,12)
rank(10,11,12) rank(10,10,12) rank(10,8,12) rank(10,7,12) rank(10,6,12) rank(10,4,12) rank(10,3,12) rank(10,2,12)
rank(10,1,12) rank(9,15,12) rank(9,14,12) rank(9,10,12) rank(9,8,12) rank(9,7,12) rank(9,6,12) rank(9,5,12) rank(9,4,12)
rank(9,3,12) rank(9,2,12) rank(9,1,12) rank(8,13,12) rank(8,11,12) rank(8,10,12) rank(8,8,12) rank(8,7,12) rank(8,6,12)
rank(8,5,12) rank(8,3,12) rank(7,15,12) rank(7,14,12) rank(7,11,12) rank(7,9,12) rank(7,8,12) rank(7,6,12) rank(7,4,12)
rank(7,3,12) rank(7,2,12) rank(7,1,12) rank(6,15,12) rank(6,14,12) rank(6,10,12) rank(6,9,12) rank(6,6,12) rank(6,5,12)
rank(6,4,12) rank(6,3,12) rank(6,2,12) rank(5,7,12) rank(4,4,12) rank(4,3,12) rank(4,1,12) rank(2,15,12) rank(2,14,12)
rank(2,13,12) rank(2,11,12) rank(2,8,12) rank(2,3,12) rank(2,1,12) rank(1,15,12) rank(1,14,12) rank(1,13,12)
rank(1,11,12) rank(1,10,12) rank(1,9,12) rank(1,7,12) rank(1,6,12) rank(1,5,12) rank(1,3,12) rank(1,2,12) rank(1,1,12)
rank(15,15,11) rank(15,12,11) rank(15,10,11) rank(15,8,11) rank(15,7,11) rank(15,5,11) rank(15,4,11) rank(15,2,11)
rank(13,15,11) rank(13,14,11) rank(13,13,11) rank(13,6,11) rank(13,5,11) rank(13,4,11) rank(13,1,11) rank(12,15,11)
rank(12,14,11) rank(12,13,11) rank(12,10,11) rank(12,9,11) rank(12,8,11) rank(12,7,11) rank(12,6,11) rank(12,5,11)
rank(12,4,11) rank(12,3,11) rank(12,2,11) rank(12,1,11) rank(11,15,11) rank(11,14,11) rank(11,13,11) rank(11,12,11)
rank(11,10,11) rank(11,9,11) rank(11,8,11) rank(11,7,11) rank(11,6,11) rank(11,5,11) rank(11,4,11) rank(11,3,11)
rank(11,2,11) rank(11,1,11) rank(10,10,11) rank(10,4,11) rank(9,15,11) rank(9,14,11) rank(9,13,11) rank(9,12,11)
rank(9,10,11) rank(9,9,11) rank(9,8,11) rank(9,7,11) rank(9,6,11) rank(9,5,11) rank(9,4,11) rank(9,3,11) rank(9,2,11)
rank(9,1,11) rank(8,13,11) rank(8,10,11) rank(8,7,11) rank(8,5,11) rank(7,4,11) rank(6,15,11) rank(6,14,11)
rank(6,12,11) rank(6,10,11) rank(6,9,11) rank(6,6,11) rank(6,5,11) rank(6,4,11) rank(6,3,11) rank(6,2,11) rank(5,12,11)
rank(5,7,11) rank(5,5,11) rank(5,2,11) rank(4,13,11) rank(4,12,11) rank(4,10,11) rank(4,9,11) rank(4,7,11) rank(4,4,11)
rank(4,3,11) rank(4,2,11) rank(4,1,11) rank(3,13,11) rank(3,12,11) rank(3,10,11) rank(3,6,11) rank(3,5,11) rank(3,4,11)
rank(3,3,11) rank(3,2,11) rank(3,1,11) rank(2,13,11) rank(1,15,11) rank(1,13,11) rank(1,9,11) rank(1,7,11) rank(1,5,11)
rank(1,2,11) rank(14,14,10) rank(14,12,10) rank(14,11,10) rank(14,9,10) rank(14,6,10) rank(14,1,10) rank(13,15,10)
rank(13,14,10) rank(13,13,10) rank(13,11,10) rank(13,9,10) rank(13,6,10) rank(13,5,10) rank(13,4,10) rank(13,1,10)
rank(12,15,10) rank(12,13,10) rank(12,9,10) rank(12,3,10) rank(12,1,10) rank(11,14,10) rank(11,13,10) rank(11,12,10)
rank(11,9,10) rank(11,8,10) rank(11,7,10) rank(11,5,10) rank(11,4,10) rank(11,3,10) rank(11,2,10) rank(11,1,10)
rank(8,13,10) rank(8,7,10) rank(7,15,10) rank(7,14,10) rank(7,13,10) rank(7,12,10) rank(7,11,10) rank(7,9,10)
rank(7,8,10) rank(7,6,10) rank(7,5,10) rank(7,4,10) rank(7,3,10) rank(7,2,10) rank(7,1,10) rank(6,14,10) rank(6,9,10)
rank(6,6,10) rank(6,3,10) rank(5,15,10) rank(5,14,10) rank(5,13,10) rank(5,12,10) rank(5,11,10) rank(5,8,10)
rank(5,7,10) rank(5,6,10) rank(5,5,10) rank(5,4,10) rank(5,3,10) rank(5,2,10) rank(5,1,10) rank(4,13,10) rank(4,12,10)
rank(4,9,10) rank(4,7,10) rank(4,4,10) rank(4,3,10) rank(4,1,10) rank(3,13,10) rank(3,12,10) rank(3,6,10) rank(3,5,10)
rank(3,4,10) rank(3,3,10) rank(3,2,10) rank(3,1,10) rank(2,15,10) rank(2,14,10) rank(2,13,10) rank(2,12,10)
rank(2,11,10) rank(2,9,10) rank(2,8,10) rank(2,7,10) rank(2,3,10) rank(2,1,10) rank(1,15,10) rank(1,14,10) rank(1,13,10)
rank(1,11,10) rank(1,9,10) rank(1,7,10) rank(1,6,10) rank(1,5,10) rank(1,3,10) rank(1,2,10) rank(1,1,10) rank(15,15,9)
rank(15,14,9) rank(15,12,9) rank(15,11,9) rank(15,10,9) rank(15,8,9) rank(15,7,9) rank(15,5,9) rank(15,4,9) rank(15,3,9)
rank(15,2,9) rank(15,1,9) rank(14,11,9) rank(13,15,9) rank(13,14,9) rank(13,13,9) rank(13,11,9) rank(13,6,9)
rank(13,5,9) rank(13,4,9) rank(13,1,9) rank(12,15,9) rank(12,13,9) rank(12,3,9) rank(12,1,9) rank(11,13,9) rank(11,8,9)
rank(11,7,9) rank(11,1,9) rank(10,15,9) rank(10,14,9) rank(10,13,9) rank(10,12,9) rank(10,11,9) rank(10,10,9)
rank(10,8,9) rank(10,7,9) rank(10,6,9) rank(10,5,9) rank(10,4,9) rank(10,3,9) rank(10,2,9) rank(10,1,9) rank(9,15,9)
rank(9,14,9) rank(9,13,9) rank(9,12,9) rank(9,10,9) rank(9,8,9) rank(9,7,9) rank(9,6,9) rank(9,5,9) rank(9,4,9)
rank(9,3,9) rank(9,2,9) rank(9,1,9) rank(8,15,9) rank(8,14,9) rank(8,13,9) rank(8,12,9) rank(8,11,9) rank(8,10,9)
rank(8,8,9) rank(8,7,9) rank(8,6,9) rank(8,5,9) rank(8,4,9) rank(8,3,9) rank(8,2,9) rank(8,1,9) rank(7,15,9)
rank(7,14,9) rank(7,11,9) rank(7,8,9) rank(7,4,9) rank(7,3,9) rank(7,2,9) rank(5,15,9) rank(5,14,9) rank(5,13,9)
rank(5,12,9) rank(5,11,9) rank(5,10,9) rank(5,8,9) rank(5,7,9) rank(5,6,9) rank(5,5,9) rank(5,4,9) rank(5,3,9)
rank(5,2,9) rank(5,1,9) rank(4,13,9) rank(4,12,9) rank(4,7,9) rank(4,4,9) rank(4,3,9) rank(4,1,9) rank(3,13,9)
rank(3,12,9) rank(3,11,9) rank(3,10,9) rank(3,8,9) rank(3,6,9) rank(3,5,9) rank(3,4,9) rank(3,3,9) rank(3,2,9)
rank(3,1,9) rank(2,15,9) rank(2,14,9) rank(2,13,9) rank(2,12,9) rank(2,11,9) rank(2,8,9) rank(2,7,9) rank(2,3,9)
rank(2,1,9) rank(1,15,9) rank(15,10,8) rank(14,14,8) rank(14,12,8) rank(14,11,8) rank(14,10,8) rank(14,9,8) rank(14,6,8)
rank(14,1,8) rank(13,15,8) rank(13,14,8) rank(13,13,8) rank(13,11,8) rank(13,10,8) rank(13,9,8) rank(13,6,8)
rank(13,5,8) rank(13,4,8) rank(13,1,8) rank(12,15,8) rank(12,13,8) rank(12,10,8) rank(12,9,8) rank(12,3,8) rank(12,1,8)
rank(11,13,8) rank(11,1,8) rank(10,11,8) rank(10,10,8) rank(10,4,8) rank(10,1,8) rank(9,10,8) rank(8,13,8) rank(8,11,8)
rank(8,10,8) rank(8,7,8) rank(8,5,8) rank(7,11,8) rank(7,4,8) rank(6,15,8) rank(6,14,8) rank(6,12,8) rank(6,11,8)
rank(6,10,8) rank(6,9,8) rank(6,7,8) rank(6,6,8) rank(6,5,8) rank(6,4,8) rank(6,3,8) rank(6,2,8) rank(6,1,8)
rank(5,15,8) rank(5,14,8) rank(5,12,8) rank(5,11,8) rank(5,7,8) rank(5,6,8) rank(5,5,8) rank(5,4,8) rank(5,3,8)
rank(5,2,8) rank(5,1,8) rank(4,14,8) rank(4,13,8) rank(4,12,8) rank(4,11,8) rank(4,10,8) rank(4,9,8) rank(4,7,8)
rank(4,4,8) rank(4,3,8) rank(4,2,8) rank(4,1,8) rank(3,13,8) rank(3,12,8) rank(3,11,8) rank(3,10,8) rank(3,6,8)
rank(3,5,8) rank(3,4,8) rank(3,3,8) rank(3,2,8) rank(3,1,8) rank(2,14,8) rank(2,13,8) rank(2,11,8) rank(1,15,8)
rank(1,14,8) rank(1,13,8) rank(1,12,8) rank(1,11,8) rank(1,10,8) rank(1,9,8) rank(1,7,8) rank(1,6,8) rank(1,5,8)
rank(1,3,8) rank(1,2,8) rank(1,1,8) rank(15,15,7) rank(15,12,7) rank(15,10,7) rank(15,8,7) rank(15,4,7) rank(14,14,7)
rank(14,12,7) rank(14,11,7) rank(14,10,7) rank(14,9,7) rank(14,8,7) rank(14,6,7) rank(14,1,7) rank(13,15,7)
rank(13,14,7) rank(13,13,7) rank(13,12,7) rank(13,11,7) rank(13,10,7) rank(13,9,7) rank(13,8,7) rank(13,6,7)
rank(13,5,7) rank(13,4,7) rank(13,1,7) rank(12,15,7) rank(12,14,7) rank(12,13,7) rank(12,10,7) rank(12,9,7) rank(12,8,7)
rank(12,6,7) rank(12,4,7) rank(12,3,7) rank(12,1,7) rank(11,13,7) rank(11,8,7) rank(11,1,7) rank(10,11,7) rank(10,10,7)
rank(10,8,7) rank(10,6,7) rank(10,4,7) rank(10,1,7) rank(9,15,7) rank(9,10,7) rank(9,8,7) rank(9,6,7) rank(9,5,7)
rank(9,1,7) rank(7,15,7) rank(7,14,7) rank(7,13,7) rank(7,12,7) rank(7,11,7) rank(7,10,7) rank(7,9,7) rank(7,8,7)
rank(7,6,7) rank(7,5,7) rank(7,4,7) rank(7,3,7) rank(7,2,7) rank(7,1,7) rank(6,15,7) rank(6,14,7) rank(6,12,7)
rank(6,11,7) rank(6,10,7) rank(6,9,7) rank(6,6,7) rank(6,5,7) rank(6,4,7) rank(6,3,7) rank(6,2,7) rank(6,1,7)
rank(4,12,7) rank(4,4,7) rank(4,3,7) rank(4,1,7) rank(3,15,7) rank(3,14,7) rank(3,13,7) rank(3,12,7) rank(3,11,7)
rank(3,10,7) rank(3,9,7) rank(3,8,7) rank(3,6,7) rank(3,5,7) rank(3,4,7) rank(3,3,7) rank(3,2,7) rank(3,1,7)
rank(2,15,7) rank(2,14,7) rank(2,13,7) rank(2,12,7) rank(2,11,7) rank(2,8,7) rank(2,3,7) rank(2,1,7) rank(1,15,7)
rank(1,9,7) rank(15,15,6) rank(15,14,6) rank(15,12,6) rank(15,11,6) rank(15,10,6) rank(15,9,6) rank(15,8,6) rank(15,7,6)
rank(15,5,6) rank(15,4,6) rank(15,3,6) rank(15,2,6) rank(15,1,6) rank(14,11,6) rank(14,9,6) rank(14,1,6) rank(13,15,6)
rank(13,5,6) rank(13,1,6) rank(12,15,6) rank(12,13,6) rank(12,10,6) rank(12,9,6) rank(12,8,6) rank(12,3,6) rank(12,1,6)
rank(11,15,6) rank(11,14,6) rank(11,13,6) rank(11,12,6) rank(11,10,6) rank(11,9,6) rank(11,8,6) rank(11,7,6)
rank(11,5,6) rank(11,4,6) rank(11,3,6) rank(11,2,6) rank(11,1,6) rank(10,11,6) rank(10,10,6) rank(10,8,6) rank(10,4,6)
rank(10,1,6) rank(9,15,6) rank(9,10,6) rank(9,8,6) rank(9,5,6) rank(8,13,6) rank(8,11,6) rank(8,10,6) rank(8,8,6)
rank(8,7,6) rank(8,5,6) rank(8,3,6) rank(7,15,6) rank(7,14,6) rank(7,11,6) rank(7,9,6) rank(7,8,6) rank(7,4,6)
rank(7,3,6) rank(7,2,6) rank(7,1,6) rank(6,9,6) rank(5,14,6) rank(5,12,6) rank(5,11,6) rank(5,7,6) rank(5,5,6)
rank(5,3,6) rank(5,2,6) rank(4,14,6) rank(4,13,6) rank(4,12,6) rank(4,11,6) rank(4,10,6) rank(4,9,6) rank(4,8,6)
rank(4,7,6) rank(4,5,6) rank(4,4,6) rank(4,3,6) rank(4,2,6) rank(4,1,6) rank(3,12,6) rank(3,5,6) rank(3,3,6) rank(3,2,6)
rank(3,1,6) rank(2,15,6) rank(2,14,6) rank(2,13,6) rank(2,12,6) rank(2,11,6) rank(2,10,6) rank(2,9,6) rank(2,8,6)
rank(2,7,6) rank(2,5,6) rank(2,4,6) rank(2,3,6) rank(2,1,6) rank(1,15,6) rank(1,13,6) rank(1,11,6) rank(1,9,6)
rank(1,7,6) rank(1,5,6) rank(1,2,6) rank(15,15,5) rank(15,12,5) rank(15,10,5) rank(15,8,5) rank(15,7,5) rank(15,4,5)
rank(15,2,5) rank(14,14,5) rank(14,12,5) rank(14,11,5) rank(14,10,5) rank(14,9,5) rank(14,8,5) rank(14,7,5) rank(14,6,5)
rank(14,2,5) rank(14,1,5) rank(13,15,5) rank(12,15,5) rank(12,14,5) rank(12,13,5) rank(12,10,5) rank(12,9,5)
rank(12,8,5) rank(12,7,5) rank(12,6,5) rank(12,4,5) rank(12,3,5) rank(12,2,5) rank(12,1,5) rank(11,13,5) rank(11,9,5)
rank(11,8,5) rank(11,7,5) rank(11,2,5) rank(11,1,5) rank(10,15,5) rank(10,14,5) rank(10,13,5) rank(10,12,5)
rank(10,11,5) rank(10,10,5) rank(10,8,5) rank(10,7,5) rank(10,6,5) rank(10,4,5) rank(10,3,5) rank(10,2,5) rank(10,1,5)
rank(9,15,5) rank(9,10,5) rank(9,8,5) rank(8,13,5) rank(8,10,5) rank(8,7,5) rank(7,15,5) rank(7,14,5) rank(7,13,5)
rank(7,12,5) rank(7,11,5) rank(7,9,5) rank(7,8,5) rank(7,6,5) rank(7,4,5) rank(7,3,5) rank(7,2,5) rank(7,1,5)
rank(6,15,5) rank(6,14,5) rank(6,10,5) rank(6,9,5) rank(6,6,5) rank(6,3,5) rank(6,2,5) rank(5,12,5) rank(5,7,5)
rank(5,2,5) rank(4,14,5) rank(4,13,5) rank(4,12,5) rank(4,11,5) rank(4,10,5) rank(4,9,5) rank(4,8,5) rank(4,7,5)
rank(4,4,5) rank(4,3,5) rank(4,2,5) rank(4,1,5) rank(3,12,5) rank(3,2,5) rank(2,15,5) rank(2,14,5) rank(2,13,5)
rank(2,12,5) rank(2,11,5) rank(2,10,5) rank(2,9,5) rank(2,8,5) rank(2,7,5) rank(2,3,5) rank(2,1,5) rank(1,15,5)
rank(1,13,5) rank(1,9,5) rank(1,7,5) rank(1,2,5) rank(15,15,4) rank(15,12,4) rank(15,10,4) rank(15,8,4) rank(14,14,4)
rank(14,12,4) rank(14,11,4) rank(14,10,4) rank(14,9,4) rank(14,8,4) rank(14,7,4) rank(14,6,4) rank(14,5,4) rank(14,3,4)
rank(14,2,4) rank(14,1,4) rank(13,15,4) rank(13,6,4) rank(13,5,4) rank(13,1,4) rank(12,15,4) rank(12,14,4) rank(12,13,4)
rank(12,10,4) rank(12,9,4) rank(12,8,4) rank(12,6,4) rank(12,3,4) rank(12,1,4) rank(11,13,4) rank(11,9,4) rank(11,8,4)
rank(11,7,4) rank(11,5,4) rank(11,2,4) rank(11,1,4) rank(10,10,4) rank(9,15,4) rank(9,14,4) rank(9,10,4) rank(9,8,4)
rank(9,7,4) rank(9,6,4) rank(9,5,4) rank(9,3,4) rank(9,2,4) rank(9,1,4) rank(8,13,4) rank(8,12,4) rank(8,11,4)
rank(8,10,4) rank(8,8,4) rank(8,7,4) rank(8,6,4) rank(8,5,4) rank(8,3,4) rank(6,15,4) rank(6,14,4) rank(6,10,4)
rank(6,9,4) rank(6,6,4) rank(6,5,4) rank(6,3,4) rank(6,2,4) rank(5,15,4) rank(5,14,4) rank(5,12,4) rank(5,11,4)
rank(5,7,4) rank(5,6,4) rank(5,5,4) rank(5,3,4) rank(5,2,4) rank(5,1,4) rank(4,3,4) rank(4,1,4) rank(3,12,4) rank(3,6,4)
rank(3,5,4) rank(3,3,4) rank(3,2,4) rank(3,1,4) rank(2,15,4) rank(2,14,4) rank(2,13,4) rank(2,12,4) rank(2,11,4)
rank(2,10,4) rank(2,9,4) rank(2,8,4) rank(2,7,4) rank(2,5,4) rank(2,3,4) rank(2,1,4) rank(1,15,4) rank(1,14,4)
rank(1,13,4) rank(1,12,4) rank(1,11,4) rank(1,10,4) rank(1,9,4) rank(1,8,4) rank(1,7,4) rank(1,6,4) rank(1,5,4)
rank(1,3,4) rank(1,2,4) rank(1,1,4) rank(15,15,3) rank(15,14,3) rank(15,12,3) rank(15,11,3) rank(15,10,3) rank(15,8,3)
rank(15,7,3) rank(15,5,3) rank(15,4,3) rank(15,2,3) rank(15,1,3) rank(14,14,3) rank(14,12,3) rank(14,11,3) rank(14,10,3)
rank(14,9,3) rank(14,8,3) rank(14,7,3) rank(14,6,3) rank(14,5,3) rank(14,2,3) rank(14,1,3) rank(13,15,3) rank(13,14,3)
rank(13,13,3) rank(13,12,3) rank(13,11,3) rank(13,10,3) rank(13,9,3) rank(13,8,3) rank(13,7,3) rank(13,6,3) rank(13,5,3)
rank(13,4,3) rank(13,1,3) rank(11,14,3) rank(11,13,3) rank(11,9,3) rank(11,8,3) rank(11,7,3) rank(11,5,3) rank(11,4,3)
rank(11,2,3) rank(11,1,3) rank(10,11,3) rank(10,10,3) rank(10,8,3) rank(10,7,3) rank(10,6,3) rank(10,4,3) rank(10,2,3)
rank(10,1,3) rank(9,15,3) rank(9,10,3) rank(9,8,3) rank(9,7,3) rank(9,6,3) rank(9,5,3) rank(9,2,3) rank(9,1,3)
rank(8,13,3) rank(8,11,3) rank(8,10,3) rank(8,8,3) rank(8,7,3) rank(8,5,3) rank(7,14,3) rank(7,11,3) rank(7,8,3)
rank(7,4,3) rank(7,2,3) rank(6,14,3) rank(6,9,3) rank(6,6,3) rank(5,14,3) rank(5,12,3) rank(5,11,3) rank(5,7,3)
rank(5,5,3) rank(5,2,3) rank(3,12,3) rank(3,5,3) rank(3,2,3) rank(2,14,3) rank(2,13,3) rank(2,11,3) rank(2,8,3)
rank(1,15,3) rank(1,14,3) rank(1,13,3) rank(1,11,3) rank(1,9,3) rank(1,7,3) rank(1,6,3) rank(1,5,3) rank(1,2,3)
rank(15,15,2) rank(15,12,2) rank(15,10,2) rank(15,8,2) rank(15,7,2) rank(15,4,2) rank(14,14,2) rank(14,12,2)
rank(14,11,2) rank(14,10,2) rank(14,9,2) rank(14,8,2) rank(14,7,2) rank(14,6,2) rank(14,1,2) rank(13,15,2) rank(13,14,2)
rank(13,13,2) rank(13,12,2) rank(13,11,2) rank(13,10,2) rank(13,9,2) rank(13,8,2) rank(13,7,2) rank(13,6,2) rank(13,5,2)
rank(13,4,2) rank(13,3,2) rank(13,1,2) rank(12,15,2) rank(12,14,2) rank(12,13,2) rank(12,10,2) rank(12,9,2) rank(12,8,2)
rank(12,7,2) rank(12,6,2) rank(12,4,2) rank(12,3,2) rank(12,1,2) rank(11,13,2) rank(11,9,2) rank(11,8,2) rank(11,7,2)
rank(11,1,2) rank(10,11,2) rank(10,10,2) rank(10,8,2) rank(10,7,2) rank(10,6,2) rank(10,4,2) rank(10,1,2) rank(9,15,2)
rank(9,10,2) rank(9,8,2) rank(9,7,2) rank(9,6,2) rank(9,5,2) rank(9,1,2) rank(8,15,2) rank(8,13,2) rank(8,12,2)
rank(8,11,2) rank(8,10,2) rank(8,8,2) rank(8,7,2) rank(8,6,2) rank(8,5,2) rank(8,4,2) rank(8,3,2) rank(7,11,2)
rank(7,8,2) rank(7,4,2) rank(6,15,2) rank(6,14,2) rank(6,10,2) rank(6,9,2) rank(6,6,2) rank(6,3,2) rank(5,12,2)
rank(5,7,2) rank(4,13,2) rank(4,12,2) rank(4,10,2) rank(4,9,2) rank(4,7,2) rank(4,4,2) rank(4,3,2) rank(4,1,2)
rank(3,12,2) rank(2,15,2) rank(2,14,2) rank(2,13,2) rank(2,12,2) rank(2,11,2) rank(2,10,2) rank(2,9,2) rank(2,8,2)
rank(2,7,2) rank(2,6,2) rank(2,5,2) rank(2,4,2) rank(2,3,2) rank(2,1,2) rank(1,15,2) rank(1,9,2) rank(1,7,2)
rank(15,15,1) rank(15,14,1) rank(15,12,1) rank(15,11,1) rank(15,10,1) rank(15,8,1) rank(15,7,1) rank(15,5,1)
rank(15,4,1) rank(15,2,1) rank(14,11,1) rank(14,9,1) rank(13,15,1) rank(13,5,1) rank(12,15,1) rank(12,3,1) rank(10,11,1)
rank(10,10,1) rank(10,4,1) rank(9,15,1) rank(9,10,1) rank(9,8,1) rank(9,6,1) rank(9,5,1) rank(8,15,1) rank(8,14,1)
rank(8,13,1) rank(8,12,1) rank(8,11,1) rank(8,10,1) rank(8,8,1) rank(8,7,1) rank(8,6,1) rank(8,5,1) rank(8,4,1)
rank(8,3,1) rank(8,2,1) rank(7,15,1) rank(7,14,1) rank(7,11,1) rank(7,9,1) rank(7,8,1) rank(7,4,1) rank(7,3,1)
rank(7,2,1) rank(6,15,1) rank(6,14,1) rank(6,12,1) rank(6,11,1) rank(6,10,1) rank(6,9,1) rank(6,6,1) rank(6,5,1)
rank(6,4,1) rank(6,3,1) rank(6,2,1) rank(5,15,1) rank(5,14,1) rank(5,12,1) rank(5,11,1) rank(5,7,1) rank(5,6,1)
rank(5,5,1) rank(5,3,1) rank(5,2,1) rank(4,3,1) rank(3,12,1) rank(3,5,1) rank(3,3,1) rank(3,2,1) rank(2,15,1)
rank(2,14,1) rank(2,13,1) rank(2,11,1) rank(2,8,1) rank(2,3,1) rank(1,15,1) rank(1,14,1) rank(1,13,1) rank(1,11,1)
rank(1,9,1) rank(1,7,1) rank(1,6,1) rank(1,5,1) rank(1,3,1) rank(1,2,1)
SATISFIABLE

Models      : 1+    
Time        : 5622.937s (Solving: 5622.65s 1st Model: 5622.52s Unsat: 0.00s)
CPU Time    : 16829.460s
Choices     : 101554485
Conflicts   : 24612988
Restarts    : 42565  (Average: 578.24 Last: 960430)

Atoms       : 30061  (Original: 30061 Auxiliary: 0)
Rules       : 83505  (1: 77310/78675 2: 1680/1575 3: 3150/3150)
Bodies      : 71086 
Equivalences: 33344  (Atom=Atom: 3284 Body=Body: 210 Other: 29850)
Tight       : Yes

Variables   : 71085  (Eliminated:  210 Frozen: 25200)
Constraints : 110145 (Binary: 42.3% Ternary: 55.8% Other:  1.9%)
Lemmas      : 25621280 (Binary:  0.0% Ternary:  3.2% Other: 96.8%)
  Conflict  : 24612988 (Average Length: 147.4) 
  Loop      : 0      (Average Length: 0.0) 
  Other     : 1008292 (Average Length: 3.7)
  Deleted   : 23240099

============ PARALLEL STATISTICS ============

Threads     : 3
Winner      : 1
Distributed : 505678 (Ratio: 0.02 Average LBD: 3.31) 
Integrated  : 1011356 (Ratio: 2.00 Unit: 63441 Average Jumps: 0.66)
Splits      : 0
Problems    : 3      (Average Length: 0.00) 

